SECTION Comment
Auto Generated file.
Name "Inst_16"
Problem "Stochastic Traveling Salesman Problem"
Dimension: 12
Scenarios: 5
END

SECTION Graph
Nodes 12
Edges 66
Scenarios 5
Root 0
E 2 1 0
E 3 1 0
E 3 2 0
E 4 1 0
E 4 2 619
E 4 3 669
E 5 1 0
E 5 2 4264
E 5 3 4695
E 5 4 0
E 6 1 4313
E 6 2 0
E 6 3 1477
E 6 4 0
E 6 5 2208
E 7 1 4224
E 7 2 4739
E 7 3 2335
E 7 4 0
E 7 5 4485
E 7 6 2527
E 8 1 2761
E 8 2 528
E 8 3 0
E 8 4 4560
E 8 5 466
E 8 6 0
E 8 7 0
E 9 1 0
E 9 2 832
E 9 3 271
E 9 4 3727
E 9 5 2280
E 9 6 0
E 9 7 0
E 9 8 3674
E 10 1 615
E 10 2 0
E 10 3 3314
E 10 4 0
E 10 5 4976
E 10 6 242
E 10 7 0
E 10 8 0
E 10 9 0
E 11 1 732
E 11 2 4302
E 11 3 4492
E 11 4 4474
E 11 5 1486
E 11 6 0
E 11 7 0
E 11 8 0
E 11 9 1470
E 11 10 2026
E 12 1 213
E 12 2 0
E 12 3 4942
E 12 4 1212
E 12 5 1491
E 12 6 3462
E 12 7 0
E 12 8 1941
E 12 9 2654
E 12 10 561
E 12 11 0
END

SECTION StochasticProbabilities
SP 0.2623403699879764 0.1497159430347078 0.2268351967792014 0.03798075206408922 0.3231277381340251
END

SECTION StochasticWeights
SE 2638 2397 4006 1139 2490
SE 2873 4225 3693 2929 1233
SE 1409 2692 3475 2495 2679
SE 417 3129 3304 3648 4453
SE 0 0 0 0 0
SE 0 0 0 0 0
SE 3845 2907 4641 2900 84
SE 0 0 0 0 0
SE 0 0 0 0 0
SE 3534 4997 1439 2072 2324
SE 0 0 0 0 0
SE 1351 1042 2824 3201 2085
SE 0 0 0 0 0
SE 4091 501 890 1798 283
SE 0 0 0 0 0
SE 0 0 0 0 0
SE 0 0 0 0 0
SE 0 0 0 0 0
SE 1679 878 1044 4525 3376
SE 0 0 0 0 0
SE 0 0 0 0 0
SE 0 0 0 0 0
SE 0 0 0 0 0
SE 126 4211 2795 4270 1739
SE 0 0 0 0 0
SE 0 0 0 0 0
SE 3155 449 404 3886 4525
SE 1982 307 3900 1687 3039
SE 159 3073 1812 247 2447
SE 0 0 0 0 0
SE 0 0 0 0 0
SE 0 0 0 0 0
SE 0 0 0 0 0
SE 545 4129 1690 1469 3731
SE 524 639 2747 2426 4452
SE 0 0 0 0 0
SE 0 0 0 0 0
SE 2868 260 4656 3643 3689
SE 0 0 0 0 0
SE 2809 920 2986 1499 670
SE 0 0 0 0 0
SE 0 0 0 0 0
SE 3671 256 364 442 3991
SE 4334 431 1832 1845 3425
SE 1144 3209 2422 759 3909
SE 0 0 0 0 0
SE 0 0 0 0 0
SE 0 0 0 0 0
SE 0 0 0 0 0
SE 0 0 0 0 0
SE 3017 2630 3648 3536 3906
SE 3418 660 3613 551 587
SE 3946 1838 1030 433 3859
SE 0 0 0 0 0
SE 0 0 0 0 0
SE 0 0 0 0 0
SE 4921 4294 3927 2566 888
SE 0 0 0 0 0
SE 0 0 0 0 0
SE 0 0 0 0 0
SE 0 0 0 0 0
SE 1644 3269 3745 2915 3700
SE 0 0 0 0 0
SE 0 0 0 0 0
SE 0 0 0 0 0
SE 1457 3017 4822 2162 3473
END

SECTION StochasticTerminals
ST 1 1 1 1 1 1
ST 2 1 1 1 1 1
ST 3 1 1 1 1 1
ST 4 1 1 1 1 1
ST 5 1 1 1 1 1
ST 6 1 1 1 1 1
ST 7 1 1 1 1 1
ST 8 1 1 1 1 1
ST 9 1 1 1 1 1
ST 10 1 1 1 1 1
ST 11 1 1 1 1 1
ST 12 1 1 1 1 1
END

EOF
